(set-logic LRA)
 
(define-fun OutputNeuron_0_idx0 ((onnx__MatMul_0_0 Real) (onnx__MatMul_0_1 Real) (onnx__MatMul_0_2 Real) (onnx__MatMul_0_3 Real) (onnx__MatMul_0_4 Real) (onnx__MatMul_0_5 Real) (onnx__MatMul_0_6 Real) (onnx__MatMul_0_7 Real)) Real
  (let ((a!1 (ite (<= (+ (* (/ 298401.0 1000000.0) onnx__MatMul_0_0)
                       (* (- (/ 34153.0 200000.0)) onnx__MatMul_0_1)
                       (* (- (/ 54893.0 200000.0)) onnx__MatMul_0_2)
                       (* (- (/ 41953.0 500000.0)) onnx__MatMul_0_3)
                       (* (- (/ 59417.0 200000.0)) onnx__MatMul_0_4)
                       (* (- (/ 77657.0 1000000.0)) onnx__MatMul_0_5)
                       (* (- (/ 135193.0 1000000.0)) onnx__MatMul_0_6)
                       (* (/ 481.0 50000.0) onnx__MatMul_0_7))
                    (/ 151147.0 500000.0))
                0.0
                (+ (- (/ 151147.0 500000.0))
                   (* (/ 298401.0 1000000.0) onnx__MatMul_0_0)
                   (* (- (/ 34153.0 200000.0)) onnx__MatMul_0_1)
                   (* (- (/ 54893.0 200000.0)) onnx__MatMul_0_2)
                   (* (- (/ 41953.0 500000.0)) onnx__MatMul_0_3)
                   (* (- (/ 59417.0 200000.0)) onnx__MatMul_0_4)
                   (* (- (/ 77657.0 1000000.0)) onnx__MatMul_0_5)
                   (* (- (/ 135193.0 1000000.0)) onnx__MatMul_0_6)
                   (* (/ 481.0 50000.0) onnx__MatMul_0_7))))
      (a!2 (ite (<= (+ (* (/ 19227.0 15625.0) onnx__MatMul_0_0)
                       (* (/ 576013.0 1000000.0) onnx__MatMul_0_1)
                       (* (/ 155027.0 1000000.0) onnx__MatMul_0_2)
                       (* (- (/ 861319.0 1000000.0)) onnx__MatMul_0_3)
                       (* (/ 710167.0 1000000.0) onnx__MatMul_0_4)
                       (* (- (/ 94297.0 1000000.0)) onnx__MatMul_0_5)
                       (* (- (/ 57719.0 125000.0)) onnx__MatMul_0_6)
                       (* (/ 630599.0 250000.0) onnx__MatMul_0_7))
                    (- (/ 101683.0 500000.0)))
                0.0
                (+ (/ 101683.0 500000.0)
                   (* (/ 19227.0 15625.0) onnx__MatMul_0_0)
                   (* (/ 576013.0 1000000.0) onnx__MatMul_0_1)
                   (* (/ 155027.0 1000000.0) onnx__MatMul_0_2)
                   (* (- (/ 861319.0 1000000.0)) onnx__MatMul_0_3)
                   (* (/ 710167.0 1000000.0) onnx__MatMul_0_4)
                   (* (- (/ 94297.0 1000000.0)) onnx__MatMul_0_5)
                   (* (- (/ 57719.0 125000.0)) onnx__MatMul_0_6)
                   (* (/ 630599.0 250000.0) onnx__MatMul_0_7))))
      (a!3 (ite (<= (+ (* (- (/ 111831.0 500000.0)) onnx__MatMul_0_0)
                       (* (/ 3941.0 25000.0) onnx__MatMul_0_1)
                       (* (- (/ 1109.0 4000.0)) onnx__MatMul_0_2)
                       (* (- (/ 332041.0 1000000.0)) onnx__MatMul_0_3)
                       (* (- (/ 59981.0 500000.0)) onnx__MatMul_0_4)
                       (* (- (/ 443.0 100000.0)) onnx__MatMul_0_5)
                       (* (/ 10417.0 50000.0) onnx__MatMul_0_6)
                       (* (/ 53827.0 500000.0) onnx__MatMul_0_7))
                    (/ 1711.0 12500.0))
                0.0
                (+ (- (/ 1711.0 12500.0))
                   (* (- (/ 111831.0 500000.0)) onnx__MatMul_0_0)
                   (* (/ 3941.0 25000.0) onnx__MatMul_0_1)
                   (* (- (/ 1109.0 4000.0)) onnx__MatMul_0_2)
                   (* (- (/ 332041.0 1000000.0)) onnx__MatMul_0_3)
                   (* (- (/ 59981.0 500000.0)) onnx__MatMul_0_4)
                   (* (- (/ 443.0 100000.0)) onnx__MatMul_0_5)
                   (* (/ 10417.0 50000.0) onnx__MatMul_0_6)
                   (* (/ 53827.0 500000.0) onnx__MatMul_0_7))))
      (a!4 (ite (<= (+ (* (/ 54357.0 500000.0) onnx__MatMul_0_0)
                       (* (- (/ 140111.0 500000.0)) onnx__MatMul_0_1)
                       (* (/ 48441.0 1000000.0) onnx__MatMul_0_2)
                       (* (- (/ 4711.0 1000000.0)) onnx__MatMul_0_3)
                       (* (- (/ 144241.0 1000000.0)) onnx__MatMul_0_4)
                       (* (/ 195717.0 1000000.0) onnx__MatMul_0_5)
                       (* (- (/ 97849.0 1000000.0)) onnx__MatMul_0_6)
                       (* (- (/ 40117.0 1000000.0)) onnx__MatMul_0_7))
                    (/ 310783.0 1000000.0))
                0.0
                (+ (- (/ 310783.0 1000000.0))
                   (* (/ 54357.0 500000.0) onnx__MatMul_0_0)
                   (* (- (/ 140111.0 500000.0)) onnx__MatMul_0_1)
                   (* (/ 48441.0 1000000.0) onnx__MatMul_0_2)
                   (* (- (/ 4711.0 1000000.0)) onnx__MatMul_0_3)
                   (* (- (/ 144241.0 1000000.0)) onnx__MatMul_0_4)
                   (* (/ 195717.0 1000000.0) onnx__MatMul_0_5)
                   (* (- (/ 97849.0 1000000.0)) onnx__MatMul_0_6)
                   (* (- (/ 40117.0 1000000.0)) onnx__MatMul_0_7)))))
  (+ (/ 1040617.0 1000000.0)
     (* (/ 25981.0 125000.0) a!1)
     (* (- (/ 2105881.0 1000000.0)) a!2)
     (* (/ 8559.0 250000.0) a!3)
     (* (/ 128429.0 1000000.0) a!4)))
)

(define-fun OutputNeuron_0_idx1 ((onnx__MatMul_0_0 Real) (onnx__MatMul_0_1 Real) (onnx__MatMul_0_2 Real) (onnx__MatMul_0_3 Real) (onnx__MatMul_0_4 Real) (onnx__MatMul_0_5 Real) (onnx__MatMul_0_6 Real) (onnx__MatMul_0_7 Real)) Real
  (let ((a!1 (ite (<= (+ (* (/ 298401.0 1000000.0) onnx__MatMul_0_0)
                       (* (- (/ 34153.0 200000.0)) onnx__MatMul_0_1)
                       (* (- (/ 54893.0 200000.0)) onnx__MatMul_0_2)
                       (* (- (/ 41953.0 500000.0)) onnx__MatMul_0_3)
                       (* (- (/ 59417.0 200000.0)) onnx__MatMul_0_4)
                       (* (- (/ 77657.0 1000000.0)) onnx__MatMul_0_5)
                       (* (- (/ 135193.0 1000000.0)) onnx__MatMul_0_6)
                       (* (/ 481.0 50000.0) onnx__MatMul_0_7))
                    (/ 151147.0 500000.0))
                0.0
                (+ (- (/ 151147.0 500000.0))
                   (* (/ 298401.0 1000000.0) onnx__MatMul_0_0)
                   (* (- (/ 34153.0 200000.0)) onnx__MatMul_0_1)
                   (* (- (/ 54893.0 200000.0)) onnx__MatMul_0_2)
                   (* (- (/ 41953.0 500000.0)) onnx__MatMul_0_3)
                   (* (- (/ 59417.0 200000.0)) onnx__MatMul_0_4)
                   (* (- (/ 77657.0 1000000.0)) onnx__MatMul_0_5)
                   (* (- (/ 135193.0 1000000.0)) onnx__MatMul_0_6)
                   (* (/ 481.0 50000.0) onnx__MatMul_0_7))))
      (a!2 (ite (<= (+ (* (/ 19227.0 15625.0) onnx__MatMul_0_0)
                       (* (/ 576013.0 1000000.0) onnx__MatMul_0_1)
                       (* (/ 155027.0 1000000.0) onnx__MatMul_0_2)
                       (* (- (/ 861319.0 1000000.0)) onnx__MatMul_0_3)
                       (* (/ 710167.0 1000000.0) onnx__MatMul_0_4)
                       (* (- (/ 94297.0 1000000.0)) onnx__MatMul_0_5)
                       (* (- (/ 57719.0 125000.0)) onnx__MatMul_0_6)
                       (* (/ 630599.0 250000.0) onnx__MatMul_0_7))
                    (- (/ 101683.0 500000.0)))
                0.0
                (+ (/ 101683.0 500000.0)
                   (* (/ 19227.0 15625.0) onnx__MatMul_0_0)
                   (* (/ 576013.0 1000000.0) onnx__MatMul_0_1)
                   (* (/ 155027.0 1000000.0) onnx__MatMul_0_2)
                   (* (- (/ 861319.0 1000000.0)) onnx__MatMul_0_3)
                   (* (/ 710167.0 1000000.0) onnx__MatMul_0_4)
                   (* (- (/ 94297.0 1000000.0)) onnx__MatMul_0_5)
                   (* (- (/ 57719.0 125000.0)) onnx__MatMul_0_6)
                   (* (/ 630599.0 250000.0) onnx__MatMul_0_7))))
      (a!3 (ite (<= (+ (* (- (/ 111831.0 500000.0)) onnx__MatMul_0_0)
                       (* (/ 3941.0 25000.0) onnx__MatMul_0_1)
                       (* (- (/ 1109.0 4000.0)) onnx__MatMul_0_2)
                       (* (- (/ 332041.0 1000000.0)) onnx__MatMul_0_3)
                       (* (- (/ 59981.0 500000.0)) onnx__MatMul_0_4)
                       (* (- (/ 443.0 100000.0)) onnx__MatMul_0_5)
                       (* (/ 10417.0 50000.0) onnx__MatMul_0_6)
                       (* (/ 53827.0 500000.0) onnx__MatMul_0_7))
                    (/ 1711.0 12500.0))
                0.0
                (+ (- (/ 1711.0 12500.0))
                   (* (- (/ 111831.0 500000.0)) onnx__MatMul_0_0)
                   (* (/ 3941.0 25000.0) onnx__MatMul_0_1)
                   (* (- (/ 1109.0 4000.0)) onnx__MatMul_0_2)
                   (* (- (/ 332041.0 1000000.0)) onnx__MatMul_0_3)
                   (* (- (/ 59981.0 500000.0)) onnx__MatMul_0_4)
                   (* (- (/ 443.0 100000.0)) onnx__MatMul_0_5)
                   (* (/ 10417.0 50000.0) onnx__MatMul_0_6)
                   (* (/ 53827.0 500000.0) onnx__MatMul_0_7))))
      (a!4 (ite (<= (+ (* (/ 54357.0 500000.0) onnx__MatMul_0_0)
                       (* (- (/ 140111.0 500000.0)) onnx__MatMul_0_1)
                       (* (/ 48441.0 1000000.0) onnx__MatMul_0_2)
                       (* (- (/ 4711.0 1000000.0)) onnx__MatMul_0_3)
                       (* (- (/ 144241.0 1000000.0)) onnx__MatMul_0_4)
                       (* (/ 195717.0 1000000.0) onnx__MatMul_0_5)
                       (* (- (/ 97849.0 1000000.0)) onnx__MatMul_0_6)
                       (* (- (/ 40117.0 1000000.0)) onnx__MatMul_0_7))
                    (/ 310783.0 1000000.0))
                0.0
                (+ (- (/ 310783.0 1000000.0))
                   (* (/ 54357.0 500000.0) onnx__MatMul_0_0)
                   (* (- (/ 140111.0 500000.0)) onnx__MatMul_0_1)
                   (* (/ 48441.0 1000000.0) onnx__MatMul_0_2)
                   (* (- (/ 4711.0 1000000.0)) onnx__MatMul_0_3)
                   (* (- (/ 144241.0 1000000.0)) onnx__MatMul_0_4)
                   (* (/ 195717.0 1000000.0) onnx__MatMul_0_5)
                   (* (- (/ 97849.0 1000000.0)) onnx__MatMul_0_6)
                   (* (- (/ 40117.0 1000000.0)) onnx__MatMul_0_7)))))
  (+ (- (/ 837091.0 500000.0))
     (* (- (/ 465517.0 1000000.0)) a!1)
     (* (/ 479091.0 200000.0) a!2)
     (* (/ 487521.0 1000000.0) a!3)
     (* (/ 112721.0 500000.0) a!4)))
)
; --- Network Functions Defined ---
; --- Define abs function
(define-fun abs ((x Real)) Real
  (ite (>= x 0.0) x (- x)))
; --- Define residual vars
(declare-fun r0 () Real)
(declare-fun r1 () Real)
(declare-fun r2 () Real)
(declare-fun r3 () Real)
(declare-fun r4 () Real)
(declare-fun r5 () Real)
(declare-fun r6 () Real)
(assert
  (forall ((y Real))
    (=>
      (and (>= y (- 1.0)) (<= y 1.0))
      ( >
        (OutputNeuron_0_idx1
           (+ (- 0.021025) r0)
           (+ (- 1.043187) r1)
           (+ 0.300265 r2)
           (+ 0.570702 r3)
           (+ (- 1.124416) r4)
           (+ (- 1.794718) r5)
           (+ 0.569139 r6)
           y
        )
        (OutputNeuron_0_idx0
           (+ (- 0.021025) r0)
           (+ (- 1.043187) r1)
           (+ 0.300265 r2)
           (+ 0.570702 r3)
           (+ (- 1.124416) r4)
           (+ (- 1.794718) r5)
           (+ 0.569139 r6)
           y
        )
      )
    )
  )
)
; --- Define distance function
(define-fun total_distance () Real
  (+ (abs r0) (abs r1) (abs r2) (abs r3) (abs r4) (abs r5) (abs r6)))
; --- Define distance condition
(assert (<= total_distance 4.094485169929666)) 
(check-sat)
(get-model)
